data/solutions/planning/wellformed/moderate/highest_rank_objective/wellformed_moderate_instance2_cplex.sol
Elapsed time: 0.92
Nodes explored: 2079
Nodes left: -
Relative gap: -
Upper bound: 5236.0
Lower bound: -
C[0]=748.0
C[1]=748.0
C[2]=748.0
y[0]=0
y[1]=1
y[2]=0
y[3]=2
y[4]=0
y[5]=2
y[6]=1
y[7]=0
y[8]=1
y[9]=0
y[10]=1
y[11]=2
y[12]=0
y[13]=0
y[14]=1
y[15]=2
y[16]=2
y[17]=1
y[18]=1
y[19]=2
