data/solutions/planning/wellformed/moderate/highest_rank_objective/wellformed_moderate_instance2_cplex.log
Found incumbent of value 2244.000000 after 0.00 sec. (0.01 ticks)
Tried aggregator 2 times.
Aggregator did 3 substitutions.
Reduced MIP has 23 rows, 61 columns, and 123 nonzeros.
Reduced MIP has 60 binaries, 0 generals, 0 SOSs, and 0 indicators.
Presolve time = 0.00 sec. (0.14 ticks)
Probing time = 0.00 sec. (0.04 ticks)
Cover probing fixed 0 vars, tightened 3 bounds.
Tried aggregator 1 time.
Reduced MIP has 23 rows, 61 columns, and 123 nonzeros.
Reduced MIP has 60 binaries, 1 generals, 0 SOSs, and 0 indicators.
Presolve time = 0.00 sec. (0.08 ticks)
Probing time = 0.00 sec. (0.02 ticks)
Clique table members: 20.
MIP emphasis: balance optimality and feasibility.
MIP search method: dynamic search.
Parallel mode: none, using 1 thread.
Root relaxation solution time = 0.00 sec. (0.08 ticks)

        Nodes                                         Cuts/
   Node  Left     Objective  IInf  Best Integer    Best Bound    ItCnt     Gap

*     0+    0                         2244.0000      151.0000            93.27%
      0     0      748.0000     4     2244.0000      748.0000       17   66.67%
*     0+    0                          818.0000      748.0000             8.56%
      0     0      748.0000     6      818.0000       Cuts: 3       21    8.56%
*     0+    0                          789.0000      748.0000             5.20%
      0     0      748.0000     5      789.0000       Cuts: 4       25    5.20%
*     0+    0                          771.0000      748.0000             2.98%
      0     2      748.0000     6      771.0000      748.0000       26    2.98%
Elapsed time = 0.00 sec. (1.77 ticks, tree = 0.01 MB, solutions = 4)
*    30+   21                          762.0000      748.0000             1.84%
*    36    21      integral     0      757.0000      748.0000       75    1.19%
*    38    21      integral     0      755.0000      748.0000       78    0.93%
*    40    21      integral     0      754.0000      748.0000       81    0.80%
*   100    53      integral     0      752.0000      748.0000      154    0.53%
*   180+   84                          751.0000      748.0000             0.40%
*   198    91      integral     0      750.0000      748.0000      292    0.27%
*   204    88      integral     0      749.0000      748.0000      298    0.13%
*   235     0      integral     0      748.0000      748.0000      334    0.00%

Gomory fractional cuts applied:  1

Root node processing (before b&c):
  Real time             =    0.00 sec. (1.77 ticks)
Sequential b&c:
  Real time             =    0.01 sec. (4.26 ticks)
                          ------------
Total (root+branch&cut) =    0.01 sec. (6.03 ticks)

Populate: phase II 
Tried aggregator 2 times.
Aggregator did 3 substitutions.
Reduced MIP has 23 rows, 61 columns, and 123 nonzeros.
Reduced MIP has 60 binaries, 0 generals, 0 SOSs, and 0 indicators.
Presolve time = 0.00 sec. (0.14 ticks)
Probing time = 0.00 sec. (0.04 ticks)
Cover probing fixed 0 vars, tightened 3 bounds.
Clique table members: 20.
MIP emphasis: balance optimality and feasibility.
MIP search method: dynamic search.
Parallel mode: none, using 1 thread.
Root relaxation solution time = 0.00 sec. (0.08 ticks)

        Nodes                                         Cuts/
   Node  Left     Objective  IInf  Best Integer    Best Bound    ItCnt     Gap

*     0+    0                          748.0000        0.0000           100.00%
      0     0      748.0000     4      748.0000      748.0000       17    0.00%
      0     2      748.0000     4      748.0000      748.0000       17    0.00%
Elapsed time = 0.00 sec. (1.20 ticks, tree = 0.01 MB, solutions = 18)
     29    31      754.0000     2      748.0000      748.0000       60    0.00%
     30    32      754.0000     2      748.0000      748.0000       62    0.00%
     31    33      754.0000     2      748.0000      748.0000       63    0.00%
     32    34      754.0000     2      748.0000      748.0000       65    0.00%
     33    35      754.0000     2      748.0000      748.0000       66    0.00%
     34    36      754.0000     2      748.0000      748.0000       68    0.00%
     35    37      754.0000     2      748.0000      748.0000       69    0.00%
     36    38      754.0000     2      748.0000      748.0000       71    0.00%
     37    39      754.0000     2      748.0000      748.0000       72    0.00%

Root node processing (before b&c):
  Real time             =    0.05 sec. (2.11 ticks)
Sequential b&c:
  Real time             =    0.85 sec. (363.67 ticks)
                          ------------
Total (root+branch&cut) =    0.91 sec. (365.78 ticks)
